(set-info :smt-lib-version 2.6)
(set-logic UF)
(set-info :source |Benchmarks from the paper: "Extending Sledgehammer with SMT Solvers" by Jasmin Blanchette, Sascha Bohme, and Lawrence C. Paulson, CADE 2011.  Translated to SMT2 by Andrew Reynolds and Morgan Deters.|)
(set-info :category "industrial")
(set-info :status unknown)
(declare-sort S1 0)
(declare-sort S2 0)
(declare-sort S3 0)
(declare-sort S4 0)
(declare-sort S5 0)
(declare-sort S6 0)
(declare-sort S7 0)
(declare-sort S8 0)
(declare-sort S9 0)
(declare-sort S10 0)
(declare-sort S11 0)
(declare-sort S12 0)
(declare-sort S13 0)
(declare-sort S14 0)
(declare-fun f1 () S1)
(declare-fun f2 () S1)
(declare-fun f3 (S2 S3) S1)
(declare-fun f4 (S4 S3) S2)
(declare-fun f5 () S4)
(declare-fun f6 (S5 S6) S3)
(declare-fun f7 (S7 S3) S5)
(declare-fun f8 () S7)
(declare-fun f9 (S8 S3) S3)
(declare-fun f10 (S9 S3) S8)
(declare-fun f11 () S9)
(declare-fun f12 () S3)
(declare-fun f13 () S5)
(declare-fun f14 () S6)
(declare-fun f15 (S10 S3) S6)
(declare-fun f16 () S10)
(declare-fun f17 () S8)
(declare-fun f18 () S8)
(declare-fun f19 () S3)
(declare-fun f20 () S3)
(declare-fun f21 () S3)
(declare-fun f22 (S11 S6) S6)
(declare-fun f23 (S12 S6) S11)
(declare-fun f24 () S12)
(declare-fun f25 () S6)
(declare-fun f26 () S8)
(declare-fun f27 () S12)
(declare-fun f28 () S11)
(declare-fun f29 () S9)
(declare-fun f30 () S3)
(declare-fun f31 () S3)
(declare-fun f32 () S3)
(declare-fun f33 () S12)
(declare-fun f34 () S3)
(declare-fun f35 () S3)
(declare-fun f36 () S2)
(declare-fun f37 (S13 S6) S1)
(declare-fun f38 (S14 S6) S13)
(declare-fun f39 () S14)
(declare-fun f40 () S3)
(declare-fun f41 () S2)
(declare-fun f42 () S6)
(declare-fun f43 () S4)
(declare-fun f44 () S3)
(declare-fun f45 () S14)
(assert (not (= f1 f2)))
(assert (let ((?v_0 (f15 f16 (f9 f17 (f9 f18 f19))))) (not (= (f3 (f4 f5 (f6 (f7 f8 (f9 (f10 f11 f12) (f6 f13 f14))) ?v_0)) (f9 (f10 f11 (f6 (f7 f8 f20) ?v_0)) (f6 (f7 f8 f21) ?v_0))) f1))))
(assert (let ((?v_0 (f15 f16 (f9 f17 (f9 f18 f19))))) (let ((?v_1 (f4 f5 (f6 (f7 f8 (f9 (f10 f11 f12) (f6 f13 f14))) ?v_0)))) (and (= (f3 ?v_1 (f6 (f7 f8 f20) ?v_0)) f1) (= (f3 ?v_1 (f6 (f7 f8 f21) ?v_0)) f1)))))
(assert (let ((?v_0 (f15 f16 (f9 f17 (f9 f18 f19))))) (let ((?v_1 (f4 f5 (f6 (f7 f8 (f9 (f10 f11 f12) (f6 f13 f14))) ?v_0)))) (and (= (f3 ?v_1 (f6 (f7 f8 f20) ?v_0)) f1) (= (f3 ?v_1 (f6 (f7 f8 f21) ?v_0)) f1)))))
(assert (let ((?v_0 (f4 f5 (f9 (f10 f11 f12) (f6 f13 f14))))) (and (= (f3 ?v_0 f20) f1) (= (f3 ?v_0 f21) f1))))
(assert (= (f6 (f7 f8 f12) (f15 f16 (f9 f17 (f9 f18 f19)))) f12))
(assert (= (f22 (f23 f24 f25) (f15 f16 (f9 f17 (f9 f18 f19)))) f25))
(assert (forall ((?v0 S3)) (= (f9 (f10 f11 f12) (f9 f26 ?v0)) (f9 f26 (f9 (f10 f11 (f9 f18 f19)) ?v0)))))
(assert (forall ((?v0 S3)) (= (f9 (f10 f11 (f9 f26 ?v0)) f12) (f9 f26 (f9 (f10 f11 ?v0) (f9 f18 f19))))))
(assert (= (f9 (f10 f11 f12) f12) (f9 f26 (f9 f17 (f9 f18 f19)))))
(assert (= (f9 (f10 f11 f12) f12) (f9 f26 (f9 f17 (f9 f18 f19)))))
(assert (= (f22 (f23 f27 f25) f25) (f15 f16 (f9 f17 (f9 f18 f19)))))
(assert (forall ((?v0 S3)) (let ((?v_2 (f9 f17 (f9 f18 f19)))) (let ((?v_0 (f15 f16 ?v_2)) (?v_1 (f7 f8 ?v0))) (= (f6 (f7 f8 (f6 ?v_1 ?v_0)) ?v_0) (f6 ?v_1 (f15 f16 (f9 f17 ?v_2))))))))
(assert (= f12 (f9 f26 (f9 f18 f19))))
(assert (= (f9 f26 (f9 f18 f19)) f12))
(assert (= (f9 f26 (f9 f18 f19)) f12))
(assert (= (f15 f16 (f9 f18 f19)) f25))
(assert (forall ((?v0 S3)) (let ((?v_0 (f9 f26 ?v0))) (= (f9 f26 (f9 f18 ?v0)) (f9 (f10 f11 (f9 (f10 f11 f12) ?v_0)) ?v_0)))))
(assert (forall ((?v0 S6)) (= (f15 f16 (f6 f13 ?v0)) (f22 f28 ?v0))))
(assert (forall ((?v0 S6)) (let ((?v_0 (f6 f13 ?v0))) (= (f9 f26 ?v_0) ?v_0))))
(assert (forall ((?v0 S3)) (= (f9 f18 ?v0) (f9 (f10 f11 (f9 (f10 f11 f12) ?v0)) ?v0))))
(assert (forall ((?v0 S3) (?v1 S3)) (= (f9 (f10 f11 (f9 f26 ?v0)) (f9 f26 ?v1)) (f9 f26 (f9 (f10 f11 ?v0) ?v1)))))
(assert (forall ((?v0 S6) (?v1 S6)) (= (f6 (f7 f8 (f6 f13 ?v0)) ?v1) (f6 f13 (f22 (f23 f24 ?v0) ?v1)))))
(assert (forall ((?v0 S6) (?v1 S6)) (= (f6 f13 (f22 (f23 f24 ?v0) ?v1)) (f6 (f7 f8 (f6 f13 ?v0)) ?v1))))
(assert (forall ((?v0 S6) (?v1 S6) (?v2 S3)) (= (f9 (f10 f11 (f6 f13 ?v0)) (f9 (f10 f11 (f6 f13 ?v1)) ?v2)) (f9 (f10 f11 (f6 f13 (f22 (f23 f27 ?v0) ?v1))) ?v2))))
(assert (forall ((?v0 S6) (?v1 S6)) (= (f9 (f10 f11 (f6 f13 ?v0)) (f6 f13 ?v1)) (f6 f13 (f22 (f23 f27 ?v0) ?v1)))))
(assert (= (f6 f13 f25) f12))
(assert (= (f22 (f23 f27 f25) f25) (f15 f16 (f9 f17 (f9 f18 f19)))))
(assert (= f12 (f9 f26 (f9 f18 f19))))
(assert (= (f15 f16 (f9 f18 f19)) f25))
(assert (= f25 (f15 f16 (f9 f18 f19))))
(assert (forall ((?v0 S3) (?v1 S3)) (= (= (f9 f26 ?v0) (f9 f26 ?v1)) (= ?v0 ?v1))))
(assert (forall ((?v0 S3) (?v1 S6)) (let ((?v_0 (f15 f16 ?v0))) (= (= ?v_0 ?v1) (= ?v1 ?v_0)))))
(assert (forall ((?v0 S3) (?v1 S3)) (let ((?v_0 (f9 f26 ?v0))) (= (= ?v_0 ?v1) (= ?v1 ?v_0)))))
(assert (forall ((?v0 S3) (?v1 S3)) (= (= (f9 f18 ?v0) (f9 f18 ?v1)) (= ?v0 ?v1))))
(assert (= (= f19 f19) true))
(assert (forall ((?v0 S3) (?v1 S3)) (= (= (f9 f17 ?v0) (f9 f17 ?v1)) (= ?v0 ?v1))))
(assert (forall ((?v0 S3) (?v1 S3) (?v2 S3)) (let ((?v_0 (f10 f11 ?v0))) (= (f9 (f10 f11 (f9 ?v_0 ?v1)) ?v2) (f9 ?v_0 (f9 (f10 f11 ?v1) ?v2))))))
(assert (forall ((?v0 S3) (?v1 S3) (?v2 S3)) (let ((?v_1 (f10 f11 ?v0)) (?v_0 (f10 f11 ?v1))) (= (f9 ?v_1 (f9 ?v_0 ?v2)) (f9 ?v_0 (f9 ?v_1 ?v2))))))
(assert (forall ((?v0 S3) (?v1 S3)) (= (f9 (f10 f11 ?v0) ?v1) (f9 (f10 f11 ?v1) ?v0))))
(assert (forall ((?v0 S6) (?v1 S6)) (= (= (f6 f13 ?v0) (f6 f13 ?v1)) (= ?v0 ?v1))))
(assert (forall ((?v0 S3)) (= (= (f9 f18 ?v0) f19) false)))
(assert (forall ((?v0 S3)) (= (= f19 (f9 f18 ?v0)) false)))
(assert (forall ((?v0 S3) (?v1 S3)) (= (= (f9 f18 ?v0) (f9 f17 ?v1)) false)))
(assert (forall ((?v0 S3) (?v1 S3)) (= (= (f9 f17 ?v0) (f9 f18 ?v1)) false)))
(assert (forall ((?v0 S3)) (= (= (f9 f17 ?v0) f19) (= ?v0 f19))))
(assert (forall ((?v0 S3)) (= (= f19 (f9 f17 ?v0)) (= f19 ?v0))))
(assert (= (f9 f17 f19) f19))
(assert (forall ((?v0 S3)) (= (f9 (f10 f11 ?v0) f19) ?v0)))
(assert (forall ((?v0 S3)) (= (f9 (f10 f11 f19) ?v0) ?v0)))
(assert (forall ((?v0 S3) (?v1 S3)) (= (f9 (f10 f11 (f9 f17 ?v0)) (f9 f17 ?v1)) (f9 f17 (f9 (f10 f11 ?v0) ?v1)))))
(assert (forall ((?v0 S3)) (= (f9 f17 ?v0) (f9 (f10 f11 ?v0) ?v0))))
(assert (forall ((?v0 S3)) (= (f9 (f10 f11 (f9 f26 f19)) ?v0) ?v0)))
(assert (forall ((?v0 S3)) (= (f9 (f10 f11 ?v0) (f9 f26 f19)) ?v0)))
(assert (forall ((?v0 S3) (?v1 S3) (?v2 S3)) (= (f9 (f10 f11 (f9 f26 ?v0)) (f9 (f10 f11 (f9 f26 ?v1)) ?v2)) (f9 (f10 f11 (f9 f26 (f9 (f10 f11 ?v0) ?v1))) ?v2))))
(assert (forall ((?v0 S3) (?v1 S3)) (= (f9 (f10 f11 (f9 f26 ?v0)) (f9 f26 ?v1)) (f9 f26 (f9 (f10 f11 ?v0) ?v1)))))
(assert (forall ((?v0 S3) (?v1 S3)) (= (f9 f26 (f9 (f10 f11 ?v0) ?v1)) (f9 (f10 f11 (f9 f26 ?v0)) (f9 f26 ?v1)))))
(assert (forall ((?v0 S3) (?v1 S3)) (= (f9 (f10 f11 (f9 f18 ?v0)) (f9 f17 ?v1)) (f9 f18 (f9 (f10 f11 ?v0) ?v1)))))
(assert (forall ((?v0 S3) (?v1 S3)) (= (f9 (f10 f11 (f9 f17 ?v0)) (f9 f18 ?v1)) (f9 f18 (f9 (f10 f11 ?v0) ?v1)))))
(assert (let ((?v_0 (f9 f17 (f9 f18 f19)))) (= (f9 f26 ?v_0) (f6 f13 (f15 f16 ?v_0)))))
(assert (let ((?v_1 (f9 f17 (f9 f18 f19)))) (let ((?v_0 (f15 f16 ?v_1))) (= (f9 (f10 f11 (f6 (f7 f8 f20) ?v_0)) (f6 (f7 f8 f21) ?v_0)) (f9 (f10 f29 (f9 (f10 f11 (f9 (f10 f29 (f9 f26 (f9 f17 ?v_1))) f30)) f12)) (f9 (f10 f11 f12) (f6 f13 f14)))))))
(assert (let ((?v_0 (f9 f18 (f9 f18 f19)))) (= (f9 f26 ?v_0) (f6 f13 (f15 f16 ?v_0)))))
(assert (let ((?v_0 (f15 f16 (f9 f17 (f9 f18 f19))))) (= (f3 (f4 f5 (f9 (f10 f11 f12) (f6 f13 f14))) (f9 (f10 f11 (f6 (f7 f8 f31) ?v_0)) (f6 (f7 f8 f32) ?v_0))) f1)))
(assert (forall ((?v0 S6) (?v1 S6)) (= (f6 (f7 f8 (f6 f13 ?v0)) ?v1) (f6 f13 (f22 (f23 f24 ?v0) ?v1)))))
(assert (forall ((?v0 S6) (?v1 S6)) (= (f9 (f10 f11 (f6 f13 ?v0)) (f6 f13 ?v1)) (f6 f13 (f22 (f23 f27 ?v0) ?v1)))))
(assert (= f12 (f6 f13 f25)))
(assert (forall ((?v0 S6) (?v1 S6)) (= (f6 f13 (f22 (f23 f24 ?v0) ?v1)) (f6 (f7 f8 (f6 f13 ?v0)) ?v1))))
(assert (forall ((?v0 S6) (?v1 S6)) (= (f22 f28 (f22 (f23 f24 ?v0) ?v1)) (f22 (f23 f24 (f22 f28 ?v0)) ?v1))))
(assert (forall ((?v0 S3) (?v1 S3)) (let ((?v_1 (f9 f17 (f9 f18 f19)))) (let ((?v_0 (f15 f16 ?v_1))) (= (f6 (f7 f8 (f9 (f10 f11 ?v0) ?v1)) ?v_0) (f9 (f10 f11 (f9 (f10 f11 (f6 (f7 f8 ?v0) ?v_0)) (f6 (f7 f8 ?v1) ?v_0))) (f9 (f10 f29 (f9 (f10 f29 (f9 f26 ?v_1)) ?v0)) ?v1)))))))
(assert (forall ((?v0 S6) (?v1 S6)) (let ((?v_0 (f15 f16 (f9 f17 (f9 f18 f19))))) (= (f22 (f23 f24 (f22 (f23 f27 ?v0) ?v1)) ?v_0) (f22 (f23 f27 (f22 (f23 f27 (f22 (f23 f24 ?v0) ?v_0)) (f22 (f23 f24 ?v1) ?v_0))) (f22 (f23 f33 (f22 (f23 f33 ?v_0) ?v0)) ?v1))))))
(assert (= (f6 f13 f25) f12))
(assert (= (f22 f28 f25) f25))
(assert (forall ((?v0 S6) (?v1 S6)) (= (f6 f13 (f22 (f23 f27 ?v0) ?v1)) (f9 (f10 f11 (f6 f13 ?v0)) (f6 f13 ?v1)))))
(assert (forall ((?v0 S6) (?v1 S6)) (= (f22 f28 (f22 (f23 f27 ?v0) ?v1)) (f22 (f23 f27 (f22 f28 ?v0)) (f22 f28 ?v1)))))
(assert (let ((?v_0 (f15 f16 (f9 f17 (f9 f18 f19))))) (= (f9 (f10 f11 (f6 (f7 f8 f31) ?v_0)) (f6 (f7 f8 f32) ?v_0)) (f9 (f10 f29 (f9 (f10 f11 f12) (f6 f13 f14))) f34))))
(assert (=> (forall ((?v0 S3) (?v1 S3)) (let ((?v_1 (f9 f17 (f9 f18 f19)))) (let ((?v_0 (f15 f16 ?v_1))) (=> (= (f9 (f10 f11 (f6 (f7 f8 ?v0) ?v_0)) (f6 (f7 f8 ?v1) ?v_0)) (f9 (f10 f29 (f9 (f10 f11 (f9 (f10 f29 (f9 f26 (f9 f17 ?v_1))) f30)) f12)) (f9 (f10 f11 f12) (f6 f13 f14)))) false)))) false))
(assert (let ((?v_0 (f15 f16 (f9 f17 (f9 f18 f19))))) (= (f9 (f10 f11 (f6 (f7 f8 f31) ?v_0)) (f6 (f7 f8 f32) ?v_0)) f35)))
(assert (=> (forall ((?v0 S3)) (let ((?v_0 (f15 f16 (f9 f17 (f9 f18 f19))))) (=> (= (f9 (f10 f11 (f6 (f7 f8 f31) ?v_0)) (f6 (f7 f8 f32) ?v_0)) (f9 (f10 f29 (f9 (f10 f11 f12) (f6 f13 f14))) ?v0)) false))) false))
(assert (= (f3 f36 (f9 (f10 f11 (f9 (f10 f29 (f9 f26 (f9 f17 (f9 f17 (f9 f18 f19))))) f30)) f12)) f1))
(assert (forall ((?v0 S3)) (= (f9 f26 ?v0) ?v0)))
(assert (forall ((?v0 S6) (?v1 S6)) (= (f6 f13 (f22 (f23 f33 ?v0) ?v1)) (f9 (f10 f29 (f6 f13 ?v0)) (f6 f13 ?v1)))))
(assert (forall ((?v0 S6) (?v1 S6)) (= (f22 f28 (f22 (f23 f33 ?v0) ?v1)) (f22 (f23 f33 (f22 f28 ?v0)) (f22 f28 ?v1)))))
(assert (forall ((?v0 S6)) (= (f22 (f23 f33 f25) ?v0) ?v0)))
(assert (forall ((?v0 S6) (?v1 S6)) (= (= f25 (f22 (f23 f33 ?v0) ?v1)) (and (= ?v0 f25) (= ?v1 f25)))))
(assert (forall ((?v0 S6)) (= (f22 (f23 f33 ?v0) f25) ?v0)))
(assert (forall ((?v0 S6) (?v1 S6)) (= (f22 (f23 f27 ?v0) ?v1) (f22 (f23 f27 ?v1) ?v0))))
(assert (forall ((?v0 S3) (?v1 S3)) (= (f9 (f10 f29 ?v0) ?v1) (f9 (f10 f29 ?v1) ?v0))))
(assert (forall ((?v0 S6) (?v1 S6) (?v2 S6)) (let ((?v_1 (f23 f27 ?v0)) (?v_0 (f23 f27 ?v1))) (= (f22 ?v_1 (f22 ?v_0 ?v2)) (f22 ?v_0 (f22 ?v_1 ?v2))))))
(assert (forall ((?v0 S6) (?v1 S6) (?v2 S6)) (let ((?v_0 (f23 f33 ?v0))) (= (f22 ?v_0 (f22 (f23 f27 ?v1) ?v2)) (f22 (f23 f27 (f22 ?v_0 ?v1)) (f22 ?v_0 ?v2))))))
(assert (forall ((?v0 S3) (?v1 S3)) (= (f9 (f10 f29 (f9 f26 ?v0)) (f9 f26 ?v1)) (f9 f26 (f9 (f10 f29 ?v0) ?v1)))))
(assert (forall ((?v0 S6) (?v1 S6)) (= (f9 (f10 f29 (f6 f13 ?v0)) (f6 f13 ?v1)) (f6 f13 (f22 (f23 f33 ?v0) ?v1)))))
(assert (forall ((?v0 S6) (?v1 S6)) (= (= (f22 (f23 f33 ?v0) ?v1) f25) (and (= ?v0 f25) (= ?v1 f25)))))
(assert (forall ((?v0 S6) (?v1 S6) (?v2 S6)) (let ((?v_0 (f23 f27 ?v0))) (= (f22 (f23 f27 (f22 ?v_0 ?v1)) ?v2) (f22 ?v_0 (f22 (f23 f27 ?v1) ?v2))))))
(assert (forall ((?v0 S3) (?v1 S3) (?v2 S3)) (let ((?v_0 (f10 f29 ?v0))) (= (f9 (f10 f29 (f9 ?v_0 ?v1)) ?v2) (f9 ?v_0 (f9 (f10 f29 ?v1) ?v2))))))
(assert (forall ((?v0 S6) (?v1 S6) (?v2 S6)) (= (f22 (f23 f33 (f22 (f23 f27 ?v0) ?v1)) ?v2) (f22 (f23 f27 (f22 (f23 f33 ?v0) ?v2)) (f22 (f23 f33 ?v1) ?v2)))))
(assert (forall ((?v0 S6) (?v1 S6) (?v2 S6)) (let ((?v_0 (f23 f27 ?v0))) (= (= (f22 ?v_0 ?v1) (f22 ?v_0 ?v2)) (= ?v1 ?v2)))))
(assert (forall ((?v0 S6) (?v1 S6) (?v2 S6)) (= (= (f22 (f23 f27 ?v0) ?v1) (f22 (f23 f27 ?v2) ?v1)) (= ?v0 ?v2))))
(assert (forall ((?v0 S3) (?v1 S3) (?v2 S3)) (= (f9 (f10 f29 (f9 f26 ?v0)) (f9 (f10 f29 (f9 f26 ?v1)) ?v2)) (f9 (f10 f29 (f9 f26 (f9 (f10 f29 ?v0) ?v1))) ?v2))))
(assert (forall ((?v0 S3) (?v1 S3)) (= (f9 (f10 f29 (f9 f26 ?v0)) (f9 f26 ?v1)) (f9 f26 (f9 (f10 f29 ?v0) ?v1)))))
(assert (forall ((?v0 S3) (?v1 S3)) (= (f9 f26 (f9 (f10 f29 ?v0) ?v1)) (f9 (f10 f29 (f9 f26 ?v0)) (f9 f26 ?v1)))))
(assert (forall ((?v0 S6) (?v1 S6)) (= (f9 (f10 f29 (f6 f13 ?v0)) (f6 f13 ?v1)) (f6 f13 (f22 (f23 f33 ?v0) ?v1)))))
(assert (forall ((?v0 S6) (?v1 S6)) (= (f6 f13 (f22 (f23 f33 ?v0) ?v1)) (f9 (f10 f29 (f6 f13 ?v0)) (f6 f13 ?v1)))))
(assert (forall ((?v0 S3) (?v1 S6)) (let ((?v_0 (f6 (f7 f8 ?v0) ?v1))) (= (f9 (f10 f29 ?v_0) ?v0) (f9 (f10 f29 ?v0) ?v_0)))))
(assert (forall ((?v0 S6) (?v1 S6)) (let ((?v_0 (f22 (f23 f24 ?v0) ?v1))) (= (f22 (f23 f33 ?v_0) ?v0) (f22 (f23 f33 ?v0) ?v_0)))))
(assert (forall ((?v0 S3) (?v1 S3) (?v2 S6)) (= (f6 (f7 f8 (f9 (f10 f29 ?v0) ?v1)) ?v2) (f9 (f10 f29 (f6 (f7 f8 ?v0) ?v2)) (f6 (f7 f8 ?v1) ?v2)))))
(assert (forall ((?v0 S6) (?v1 S6) (?v2 S6)) (= (f22 (f23 f24 (f22 (f23 f33 ?v0) ?v1)) ?v2) (f22 (f23 f33 (f22 (f23 f24 ?v0) ?v2)) (f22 (f23 f24 ?v1) ?v2)))))
(assert (forall ((?v0 S3) (?v1 S6) (?v2 S6)) (let ((?v_0 (f7 f8 ?v0))) (= (f6 ?v_0 (f22 (f23 f27 ?v1) ?v2)) (f9 (f10 f29 (f6 ?v_0 ?v1)) (f6 ?v_0 ?v2))))))
(assert (forall ((?v0 S6) (?v1 S6) (?v2 S6)) (let ((?v_0 (f23 f24 ?v0))) (= (f22 ?v_0 (f22 (f23 f27 ?v1) ?v2)) (f22 (f23 f33 (f22 ?v_0 ?v1)) (f22 ?v_0 ?v2))))))
(assert (forall ((?v0 S3) (?v1 S6) (?v2 S6)) (let ((?v_0 (f7 f8 ?v0))) (= (f6 ?v_0 (f22 (f23 f33 ?v1) ?v2)) (f6 (f7 f8 (f6 ?v_0 ?v1)) ?v2)))))
(assert (forall ((?v0 S6) (?v1 S6) (?v2 S6)) (let ((?v_0 (f23 f24 ?v0))) (= (f22 ?v_0 (f22 (f23 f33 ?v1) ?v2)) (f22 (f23 f24 (f22 ?v_0 ?v1)) ?v2)))))
(assert (forall ((?v0 S3)) (= (f9 (f10 f29 f19) ?v0) f19)))
(assert (forall ((?v0 S3) (?v1 S3)) (= (f9 (f10 f29 (f9 f17 ?v0)) ?v1) (f9 f17 (f9 (f10 f29 ?v0) ?v1)))))
(assert (forall ((?v0 S3)) (= (f9 (f10 f29 f12) ?v0) ?v0)))
(assert (forall ((?v0 S3)) (= (f9 (f10 f29 ?v0) f12) ?v0)))
(assert (forall ((?v0 S3) (?v1 S3) (?v2 S3)) (let ((?v_0 (f10 f29 ?v0))) (= (f9 ?v_0 (f9 (f10 f11 ?v1) ?v2)) (f9 (f10 f11 (f9 ?v_0 ?v1)) (f9 ?v_0 ?v2))))))
(assert (forall ((?v0 S3) (?v1 S3) (?v2 S3)) (= (f9 (f10 f29 (f9 (f10 f11 ?v0) ?v1)) ?v2) (f9 (f10 f11 (f9 (f10 f29 ?v0) ?v2)) (f9 (f10 f29 ?v1) ?v2)))))
(assert (forall ((?v0 S3) (?v1 S6) (?v2 S6)) (let ((?v_0 (f7 f8 ?v0))) (= (f6 (f7 f8 (f6 ?v_0 ?v1)) ?v2) (f6 ?v_0 (f22 (f23 f33 ?v1) ?v2))))))
(assert (forall ((?v0 S3) (?v1 S6) (?v2 S6)) (let ((?v_0 (f7 f8 ?v0))) (= (f6 ?v_0 (f22 (f23 f27 ?v1) ?v2)) (f9 (f10 f29 (f6 ?v_0 ?v1)) (f6 ?v_0 ?v2))))))
(assert (forall ((?v0 S3) (?v1 S3) (?v2 S3)) (let ((?v_0 (f10 f29 (f9 f26 ?v0)))) (= (f9 ?v_0 (f9 (f10 f11 ?v1) ?v2)) (f9 (f10 f11 (f9 ?v_0 ?v1)) (f9 ?v_0 ?v2))))))
(assert (forall ((?v0 S3) (?v1 S6) (?v2 S6)) (let ((?v_0 (f23 f33 (f15 f16 ?v0)))) (= (f22 ?v_0 (f22 (f23 f27 ?v1) ?v2)) (f22 (f23 f27 (f22 ?v_0 ?v1)) (f22 ?v_0 ?v2))))))
(assert (forall ((?v0 S3) (?v1 S3) (?v2 S3)) (let ((?v_0 (f9 f26 ?v2))) (= (f9 (f10 f29 (f9 (f10 f11 ?v0) ?v1)) ?v_0) (f9 (f10 f11 (f9 (f10 f29 ?v0) ?v_0)) (f9 (f10 f29 ?v1) ?v_0))))))
(assert (forall ((?v0 S6) (?v1 S6) (?v2 S3)) (let ((?v_0 (f15 f16 ?v2))) (= (f22 (f23 f33 (f22 (f23 f27 ?v0) ?v1)) ?v_0) (f22 (f23 f27 (f22 (f23 f33 ?v0) ?v_0)) (f22 (f23 f33 ?v1) ?v_0))))))
(assert (forall ((?v0 S3) (?v1 S3) (?v2 S3)) (let ((?v_0 (f4 f5 ?v0))) (= (= (f3 ?v_0 (f9 (f10 f11 ?v1) (f9 (f10 f29 ?v0) ?v2))) f1) (= (f3 ?v_0 ?v1) f1)))))
(assert (forall ((?v0 S3) (?v1 S3) (?v2 S3) (?v3 S3) (?v4 S3)) (let ((?v_0 (f4 f5 ?v0)) (?v_1 (f10 f11 ?v2))) (=> (= (f3 ?v_0 ?v1) f1) (= (= (f3 ?v_0 (f9 ?v_1 ?v3)) f1) (= (f3 ?v_0 (f9 (f10 f11 (f9 ?v_1 (f9 (f10 f29 ?v4) ?v1))) ?v3)) f1))))))
(assert (forall ((?v0 S3)) (= (f9 (f10 f29 ?v0) (f9 f26 (f9 f18 f19))) ?v0)))
(assert (forall ((?v0 S3)) (= (f9 (f10 f29 (f9 f26 (f9 f18 f19))) ?v0) ?v0)))
(assert (forall ((?v0 S3) (?v1 S3)) (= (f9 (f10 f29 (f9 f18 ?v0)) ?v1) (f9 (f10 f11 (f9 f17 (f9 (f10 f29 ?v0) ?v1))) ?v1))))
(assert (forall ((?v0 S3)) (= (f6 (f7 f8 ?v0) f25) ?v0)))
(assert (forall ((?v0 S6)) (= (f22 (f23 f24 ?v0) f25) ?v0)))
(assert (forall ((?v0 S6) (?v1 S6)) (= (= (f22 f28 ?v0) (f22 f28 ?v1)) (= ?v0 ?v1))))
(assert (forall ((?v0 S6) (?v1 S6)) (= (= (f6 f13 ?v0) (f6 f13 ?v1)) (= ?v0 ?v1))))
(assert (forall ((?v0 S6) (?v1 S6)) (= (= (f6 f13 ?v0) (f6 f13 ?v1)) (= ?v0 ?v1))))
(assert (forall ((?v0 S1) (?v1 S6) (?v2 S6)) (let ((?v_0 (= ?v0 f1))) (= (ite ?v_0 (f6 f13 ?v1) (f6 f13 ?v2)) (f6 f13 (ite ?v_0 ?v1 ?v2))))))
(assert (forall ((?v0 S3)) (= (f9 (f10 f29 (f9 (f10 f11 f12) f12)) (f9 f26 ?v0)) (f9 f26 (f9 f17 ?v0)))))
(assert (forall ((?v0 S3)) (= (f6 (f7 f8 ?v0) (f15 f16 (f9 f18 (f9 f18 f19)))) (f9 (f10 f29 (f9 (f10 f29 ?v0) ?v0)) ?v0))))
(assert (forall ((?v0 S6)) (= (f22 (f23 f24 ?v0) (f15 f16 (f9 f18 (f9 f18 f19)))) (f22 (f23 f33 (f22 (f23 f33 ?v0) ?v0)) ?v0))))
(assert (forall ((?v0 S6)) (= (f22 (f23 f33 ?v0) (f15 f16 (f9 f17 (f9 f18 f19)))) (f22 (f23 f27 ?v0) ?v0))))
(assert (forall ((?v0 S6)) (= (f22 (f23 f33 (f15 f16 (f9 f17 (f9 f18 f19)))) ?v0) (f22 (f23 f27 ?v0) ?v0))))
(assert (forall ((?v0 S3)) (= (f9 (f10 f29 ?v0) (f9 f26 (f9 f17 (f9 f18 f19)))) (f9 (f10 f11 ?v0) ?v0))))
(assert (forall ((?v0 S3)) (= (f9 (f10 f29 ?v0) (f9 f26 (f9 f17 (f9 f18 f19)))) (f9 (f10 f11 ?v0) ?v0))))
(assert (forall ((?v0 S6)) (= (f22 (f23 f33 ?v0) (f15 f16 (f9 f17 (f9 f18 f19)))) (f22 (f23 f27 ?v0) ?v0))))
(assert (forall ((?v0 S3)) (= (f9 (f10 f29 (f9 f26 (f9 f17 (f9 f18 f19)))) ?v0) (f9 (f10 f11 ?v0) ?v0))))
(assert (forall ((?v0 S3)) (= (f9 (f10 f29 (f9 f26 (f9 f17 (f9 f18 f19)))) ?v0) (f9 (f10 f11 ?v0) ?v0))))
(assert (forall ((?v0 S6)) (= (f22 (f23 f33 (f15 f16 (f9 f17 (f9 f18 f19)))) ?v0) (f22 (f23 f27 ?v0) ?v0))))
(assert (forall ((?v0 S3)) (= (f6 (f7 f8 ?v0) (f15 f16 (f9 f17 (f9 f18 f19)))) (f9 (f10 f29 ?v0) ?v0))))
(assert (forall ((?v0 S6)) (= (f22 (f23 f24 ?v0) (f15 f16 (f9 f17 (f9 f18 f19)))) (f22 (f23 f33 ?v0) ?v0))))
(assert (forall ((?v0 S3) (?v1 S6)) (let ((?v_1 (f15 f16 (f9 f17 (f9 f18 f19)))) (?v_0 (f7 f8 ?v0))) (= (f6 ?v_0 (f22 (f23 f33 ?v_1) ?v1)) (f6 (f7 f8 (f6 ?v_0 ?v1)) ?v_1)))))
(assert (forall ((?v0 S6) (?v1 S6)) (let ((?v_1 (f15 f16 (f9 f17 (f9 f18 f19)))) (?v_0 (f23 f24 ?v0))) (= (f22 ?v_0 (f22 (f23 f33 ?v_1) ?v1)) (f22 (f23 f24 (f22 ?v_0 ?v1)) ?v_1)))))
(assert (forall ((?v0 S3)) (let ((?v_1 (f9 f18 f19)) (?v_0 (f7 f8 ?v0))) (= (f9 (f10 f29 ?v0) (f6 ?v_0 (f15 f16 (f9 f17 ?v_1)))) (f6 ?v_0 (f15 f16 (f9 f18 ?v_1)))))))
(assert (forall ((?v0 S3)) (let ((?v_0 (f9 f26 ?v0))) (= (f6 (f7 f8 ?v_0) (f15 f16 (f9 f17 (f9 f18 f19)))) (f9 (f10 f29 ?v_0) ?v_0)))))
(assert (forall ((?v0 S3)) (let ((?v_0 (f15 f16 ?v0))) (= (f22 (f23 f24 ?v_0) (f15 f16 (f9 f17 (f9 f18 f19)))) (f22 (f23 f33 ?v_0) ?v_0)))))
(assert (forall ((?v0 S3) (?v1 S3)) (let ((?v_1 (f9 f17 (f9 f18 f19)))) (let ((?v_0 (f15 f16 ?v_1))) (= (f6 (f7 f8 (f9 (f10 f11 ?v0) ?v1)) ?v_0) (f9 (f10 f11 (f9 (f10 f11 (f6 (f7 f8 ?v0) ?v_0)) (f9 (f10 f29 (f9 (f10 f29 (f9 f26 ?v_1)) ?v0)) ?v1))) (f6 (f7 f8 ?v1) ?v_0)))))))
(assert (forall ((?v0 S3) (?v1 S3)) (let ((?v_3 (f9 f18 f19))) (let ((?v_5 (f15 f16 (f9 f17 ?v_3))) (?v_1 (f9 f18 ?v_3))) (let ((?v_0 (f15 f16 ?v_1)) (?v_2 (f7 f8 ?v0)) (?v_4 (f10 f29 (f9 f26 ?v_1))) (?v_6 (f7 f8 ?v1))) (= (f6 (f7 f8 (f9 (f10 f11 ?v0) ?v1)) ?v_0) (f9 (f10 f11 (f9 (f10 f11 (f9 (f10 f11 (f6 ?v_2 ?v_0)) (f9 (f10 f29 (f9 ?v_4 (f6 ?v_2 ?v_5))) ?v1))) (f9 (f10 f29 (f9 ?v_4 ?v0)) (f6 ?v_6 ?v_5)))) (f6 ?v_6 ?v_0))))))))
(assert (forall ((?v0 S6)) (= (f6 (f7 f8 f12) ?v0) f12)))
(assert (forall ((?v0 S6)) (= (f22 (f23 f24 f25) ?v0) f25)))
(assert (forall ((?v0 S3) (?v1 S3) (?v2 S6)) (=> (= (f3 (f4 f5 ?v0) ?v1) f1) (= (f3 (f4 f5 (f6 (f7 f8 ?v0) ?v2)) (f6 (f7 f8 ?v1) ?v2)) f1))))
(assert (forall ((?v0 S6) (?v1 S6) (?v2 S6)) (=> (= (f37 (f38 f39 ?v0) ?v1) f1) (= (f37 (f38 f39 (f22 (f23 f24 ?v0) ?v2)) (f22 (f23 f24 ?v1) ?v2)) f1))))
(assert (let ((?v_0 (f9 f17 (f9 f18 f19)))) (= (f3 (f4 f5 (f9 (f10 f11 (f9 (f10 f29 (f9 f26 (f9 f17 ?v_0))) f30)) f12)) (f9 (f10 f11 (f6 (f7 f8 f40) (f15 f16 ?v_0))) f12)) f1)))
(assert (not (= (f3 f41 (f9 (f10 f29 (f9 (f10 f11 (f9 (f10 f29 (f9 f26 (f9 f17 (f9 f17 (f9 f18 f19))))) f30)) f12)) (f9 (f10 f11 f12) (f6 f13 f42)))) f1)))
(assert (let ((?v_1 (f9 (f10 f11 f12) (f6 f13 f14))) (?v_0 (f9 (f10 f11 (f9 (f10 f29 (f9 f26 (f9 f17 (f9 f17 (f9 f18 f19))))) f30)) f12))) (not (=> (= (f3 (f4 f43 ?v_1) ?v_0) f1) (not (= (f3 f41 (f9 (f10 f29 ?v_0) ?v_1)) f1))))))
(assert (let ((?v_0 (f9 f17 (f9 f18 f19)))) (= (f9 (f10 f11 (f6 (f7 f8 f40) (f15 f16 ?v_0))) f12) (f9 (f10 f29 (f9 (f10 f11 (f9 (f10 f29 (f9 f26 (f9 f17 ?v_0))) f30)) f12)) f44))))
(assert (forall ((?v0 S3) (?v1 S6)) (let ((?v_0 (f7 f8 ?v0))) (let ((?v_1 (f6 ?v_0 ?v1))) (= (f6 ?v_0 (f22 (f23 f33 (f15 f16 (f9 f17 (f9 f18 f19)))) ?v1)) (f9 (f10 f29 ?v_1) ?v_1))))))
(assert (forall ((?v0 S6) (?v1 S6)) (let ((?v_0 (f23 f24 ?v0))) (let ((?v_1 (f22 ?v_0 ?v1))) (= (f22 ?v_0 (f22 (f23 f33 (f15 f16 (f9 f17 (f9 f18 f19)))) ?v1)) (f22 (f23 f33 ?v_1) ?v_1))))))
(assert (forall ((?v0 S3)) (= (f9 (f10 f29 ?v0) ?v0) (f6 (f7 f8 ?v0) (f15 f16 (f9 f17 (f9 f18 f19)))))))
(assert (forall ((?v0 S6)) (= (f22 (f23 f33 ?v0) ?v0) (f22 (f23 f24 ?v0) (f15 f16 (f9 f17 (f9 f18 f19)))))))
(assert (=> (forall ((?v0 S3)) (let ((?v_0 (f9 f17 (f9 f18 f19)))) (=> (= (f9 (f10 f11 (f6 (f7 f8 f40) (f15 f16 ?v_0))) f12) (f9 (f10 f29 (f9 (f10 f11 (f9 (f10 f29 (f9 f26 (f9 f17 ?v_0))) f30)) f12)) ?v0)) false))) false))
(assert (= (f3 (f4 f43 f12) f44) f1))
(assert (and (= f31 f35) (= f32 f35)))
(assert (= (f3 (f4 f43 f35) (f9 (f10 f11 f12) (f6 f13 f14))) f1))
(assert (= (f3 (f4 f43 f34) (f9 (f10 f11 f12) (f6 f13 f14))) f1))
(assert (= (f37 (f38 f45 f42) f14) f1))
(assert (= (f3 (f4 f43 f35) (f9 (f10 f11 (f9 (f10 f29 (f9 f26 (f9 f17 (f9 f17 (f9 f18 f19))))) f30)) f12)) f1))
(assert (= (f3 (f4 f43 f44) (f9 (f10 f11 (f9 (f10 f29 (f9 f26 (f9 f17 (f9 f17 (f9 f18 f19))))) f30)) f12)) f1))
(assert (let ((?v_0 (f15 f16 (f9 f17 (f9 f18 f19))))) (=> (not (= f32 f35)) (= (f3 (f4 f43 f35) (f9 (f10 f11 (f6 (f7 f8 f31) ?v_0)) (f6 (f7 f8 f32) ?v_0))) f1))))
(assert (let ((?v_0 (f15 f16 (f9 f17 (f9 f18 f19))))) (=> (not (= f31 f35)) (= (f3 (f4 f43 f35) (f9 (f10 f11 (f6 (f7 f8 f31) ?v_0)) (f6 (f7 f8 f32) ?v_0))) f1))))
(assert (= (f3 f41 (f9 (f10 f29 (f9 (f10 f11 (f9 (f10 f29 (f9 f26 (f9 f17 (f9 f17 (f9 f18 f19))))) f30)) f12)) f44)) f1))
(assert (= (f3 f41 (f9 (f10 f29 (f9 (f10 f11 (f9 (f10 f29 (f9 f26 (f9 f17 (f9 f17 (f9 f18 f19))))) f30)) f12)) f34)) f1))
(assert (let ((?v_1 (f9 (f10 f11 f12) (f6 f13 f14))) (?v_0 (f9 (f10 f11 (f9 (f10 f29 (f9 f26 (f9 f17 (f9 f17 (f9 f18 f19))))) f30)) f12))) (and (= (f3 (f4 f43 ?v_1) ?v_0) f1) (= (f3 f41 (f9 (f10 f29 ?v_0) ?v_1)) f1))))
(assert (=> (= f44 f12) (exists ((?v0 S3) (?v1 S3)) (let ((?v_1 (f9 f17 (f9 f18 f19)))) (let ((?v_0 (f15 f16 ?v_1))) (= (f9 (f10 f11 (f6 (f7 f8 ?v0) ?v_0)) (f6 (f7 f8 ?v1) ?v_0)) (f9 (f10 f11 (f9 (f10 f29 (f9 f26 (f9 f17 ?v_1))) f30)) f12)))))))
(assert (forall ((?v0 S6)) (not (= (f3 (f4 f43 (f6 f13 ?v0)) f35) f1))))
(assert (forall ((?v0 S6)) (not (= (f37 (f38 f45 (f22 f28 ?v0)) f42) f1))))
(assert (= f35 (f6 f13 f42)))
(assert (= (f6 f13 f42) f35))
(assert (= (f22 f28 f42) f42))
(assert (forall ((?v0 S6)) (= (= (f3 (f4 f43 f35) (f6 f13 ?v0)) f1) (= (f37 (f38 f45 f42) ?v0) f1))))
(assert (forall ((?v0 S6)) (let ((?v_0 (f38 f45 f42))) (= (= (f37 ?v_0 (f22 f28 ?v0)) f1) (= (f37 ?v_0 ?v0) f1)))))
(assert (forall ((?v0 S6) (?v1 S6)) (= (= (f3 (f4 f43 (f6 f13 ?v0)) (f6 f13 ?v1)) f1) (= (f37 (f38 f45 ?v0) ?v1) f1))))
(assert (forall ((?v0 S6) (?v1 S6)) (= (= (f37 (f38 f45 (f22 f28 ?v0)) (f22 f28 ?v1)) f1) (= (f37 (f38 f45 ?v0) ?v1) f1))))
(assert (forall ((?v0 S3) (?v1 S6)) (= (= (f6 (f7 f8 ?v0) ?v1) f35) (and (= ?v0 f35) (not (= ?v1 f42))))))
(assert (forall ((?v0 S6) (?v1 S6)) (= (= (f22 (f23 f24 ?v0) ?v1) f42) (and (= ?v0 f42) (not (= ?v1 f42))))))
(assert (forall ((?v0 S3) (?v1 S6)) (let ((?v_0 (f4 f43 f35))) (=> (= (f3 ?v_0 ?v0) f1) (= (f3 ?v_0 (f6 (f7 f8 ?v0) ?v1)) f1)))))
(assert (forall ((?v0 S6) (?v1 S6)) (let ((?v_0 (f38 f45 f42))) (=> (= (f37 ?v_0 ?v0) f1) (= (f37 ?v_0 (f22 (f23 f24 ?v0) ?v1)) f1)))))
(assert (forall ((?v0 S3) (?v1 S3)) (let ((?v_0 (f4 f43 f35))) (=> (= (f3 ?v_0 ?v0) f1) (=> (= (f3 ?v_0 (f9 (f10 f29 ?v0) ?v1)) f1) (= (f3 ?v_0 ?v1) f1))))))
(assert (forall ((?v0 S6) (?v1 S6)) (=> (= (f37 (f38 f45 ?v0) ?v1) f1) (= (f3 (f4 f43 (f6 f13 ?v0)) (f6 f13 ?v1)) f1))))
(assert (forall ((?v0 S6) (?v1 S6)) (=> (= (f37 (f38 f45 ?v0) ?v1) f1) (= (f37 (f38 f45 (f22 f28 ?v0)) (f22 f28 ?v1)) f1))))
(assert (forall ((?v0 S3) (?v1 S3) (?v2 S3)) (let ((?v_0 (f10 f29 ?v2))) (=> (= (f3 (f4 f43 ?v0) ?v1) f1) (=> (= (f3 (f4 f43 f35) ?v2) f1) (= (f3 (f4 f43 (f9 ?v_0 ?v0)) (f9 ?v_0 ?v1)) f1))))))
(assert (forall ((?v0 S6) (?v1 S6)) (=> (= (f3 (f4 f43 (f6 f13 ?v0)) (f6 f13 ?v1)) f1) (= (f37 (f38 f45 ?v0) ?v1) f1))))
(assert (forall ((?v0 S6) (?v1 S6)) (=> (= (f37 (f38 f45 (f22 f28 ?v0)) (f22 f28 ?v1)) f1) (= (f37 (f38 f45 ?v0) ?v1) f1))))
(assert (forall ((?v0 S6) (?v1 S6) (?v2 S3)) (let ((?v_0 (f7 f8 ?v2))) (=> (= (f37 (f38 f45 ?v0) ?v1) f1) (=> (= (f3 (f4 f43 f35) ?v2) f1) (=> (= (f3 (f4 f43 ?v2) f12) f1) (= (f3 (f4 f43 (f6 ?v_0 ?v1)) (f6 ?v_0 ?v0)) f1)))))))
(assert (forall ((?v0 S6) (?v1 S6) (?v2 S6)) (let ((?v_0 (f23 f24 ?v2))) (=> (= (f37 (f38 f45 ?v0) ?v1) f1) (=> (= (f37 (f38 f45 f42) ?v2) f1) (=> (= (f37 (f38 f45 ?v2) f25) f1) (= (f37 (f38 f45 (f22 ?v_0 ?v1)) (f22 ?v_0 ?v0)) f1)))))))
(assert (forall ((?v0 S3) (?v1 S6)) (let ((?v_0 (f4 f43 f12))) (=> (= (f3 ?v_0 ?v0) f1) (=> (= (f37 (f38 f45 f42) ?v1) f1) (= (f3 ?v_0 (f6 (f7 f8 ?v0) ?v1)) f1))))))
(assert (forall ((?v0 S6) (?v1 S6)) (let ((?v_0 (f38 f45 f25))) (=> (= (f37 ?v_0 ?v0) f1) (=> (= (f37 (f38 f45 f42) ?v1) f1) (= (f37 ?v_0 (f22 (f23 f24 ?v0) ?v1)) f1))))))
(assert (forall ((?v0 S6) (?v1 S6) (?v2 S6)) (= (= (f22 (f23 f33 ?v0) ?v1) (f22 (f23 f33 ?v2) ?v1)) (or (= ?v0 ?v2) (= ?v1 f42)))))
(assert (forall ((?v0 S6) (?v1 S6) (?v2 S6)) (let ((?v_0 (f23 f33 ?v0))) (= (= (f22 ?v_0 ?v1) (f22 ?v_0 ?v2)) (or (= ?v1 ?v2) (= ?v0 f42))))))
(assert (forall ((?v0 S6) (?v1 S6) (?v2 S6)) (let ((?v_0 (f23 f33 ?v0))) (= (f22 (f23 f33 (f22 ?v_0 ?v1)) ?v2) (f22 ?v_0 (f22 (f23 f33 ?v1) ?v2))))))
(assert (forall ((?v0 S6) (?v1 S6)) (= (= (f22 (f23 f33 ?v0) ?v1) f42) (or (= ?v0 f42) (= ?v1 f42)))))
(assert (forall ((?v0 S6) (?v1 S6)) (= (f22 (f23 f33 ?v0) ?v1) (f22 (f23 f33 ?v1) ?v0))))
(assert (forall ((?v0 S6)) (= (f22 (f23 f33 ?v0) f42) f42)))
(assert (forall ((?v0 S3)) (= (f9 (f10 f29 ?v0) f35) f35)))
(assert (forall ((?v0 S6)) (= (f22 (f23 f33 ?v0) f42) f42)))
(assert (forall ((?v0 S6)) (= (f22 (f23 f33 f42) ?v0) f42)))
(assert (forall ((?v0 S3)) (= (f9 (f10 f29 f35) ?v0) f35)))
(assert (forall ((?v0 S6)) (= (f22 (f23 f33 f42) ?v0) f42)))
(assert (forall ((?v0 S3) (?v1 S3)) (= (= (f3 (f4 f43 (f9 f26 ?v0)) (f9 f26 ?v1)) f1) (= (f3 (f4 f43 ?v0) ?v1) f1))))
(assert (forall ((?v0 S3)) (= (= (f3 (f4 f43 (f9 (f10 f11 ?v0) ?v0)) f35) f1) (= (f3 (f4 f43 ?v0) f35) f1))))
(assert (forall ((?v0 S3)) (= (= (f3 (f4 f43 (f9 f18 ?v0)) f35) f1) (= (f3 (f4 f43 ?v0) f35) f1))))
(assert (= (= (f3 (f4 f43 f19) f35) f1) false))
(assert (forall ((?v0 S3)) (= (= (f3 (f4 f43 (f9 f17 ?v0)) f35) f1) (= (f3 (f4 f43 ?v0) f35) f1))))
(assert (= (f3 (f4 f43 f35) f12) f1))
(assert (forall ((?v0 S6)) (not (= (f3 (f4 f43 (f6 f13 ?v0)) f35) f1))))
(assert (forall ((?v0 S3) (?v1 S3)) (=> (= (f3 (f4 f43 f35) ?v0) f1) (=> (= (f3 (f4 f43 ?v0) ?v1) f1) (not (= (f3 (f4 f5 ?v1) ?v0) f1))))))
(assert (forall ((?v0 S6)) (= (= (f6 f13 ?v0) f35) (= ?v0 f42))))
(assert (= (f6 f13 f42) f35))
(assert (forall ((?v0 S3)) (= (f9 (f10 f11 f35) ?v0) ?v0)))
(assert (forall ((?v0 S6)) (= (f22 (f23 f27 f42) ?v0) ?v0)))
(assert (forall ((?v0 S3)) (= (f9 (f10 f11 ?v0) f35) ?v0)))
(assert (forall ((?v0 S6)) (= (f22 (f23 f27 ?v0) f42) ?v0)))
(assert (forall ((?v0 S3) (?v1 S3)) (= (= ?v0 (f9 (f10 f11 ?v0) ?v1)) (= ?v1 f35))))
(assert (forall ((?v0 S6) (?v1 S6)) (= (= ?v0 (f22 (f23 f27 ?v0) ?v1)) (= ?v1 f42))))
(assert (forall ((?v0 S3)) (= (= (f3 (f4 f43 f35) (f9 f26 ?v0)) f1) (= (f3 (f4 f43 f19) ?v0) f1))))
(assert (forall ((?v0 S3)) (= (= (f3 (f4 f43 (f9 f26 ?v0)) f35) f1) (= (f3 (f4 f43 ?v0) f19) f1))))
(assert (forall ((?v0 S3) (?v1 S3)) (or (= (f3 (f4 f43 ?v0) ?v1) f1) (or (= ?v0 ?v1) (= (f3 (f4 f43 ?v1) ?v0) f1)))))
(assert (forall ((?v0 S6) (?v1 S6) (?v2 S3)) (let ((?v_0 (f7 f8 ?v2))) (=> (= (f37 (f38 f45 ?v0) ?v1) f1) (=> (= (f3 (f4 f43 f12) ?v2) f1) (= (f3 (f4 f43 (f6 ?v_0 ?v0)) (f6 ?v_0 ?v1)) f1))))))
(assert (forall ((?v0 S6) (?v1 S6) (?v2 S6)) (let ((?v_0 (f23 f24 ?v2))) (=> (= (f37 (f38 f45 ?v0) ?v1) f1) (=> (= (f37 (f38 f45 f25) ?v2) f1) (= (f37 (f38 f45 (f22 ?v_0 ?v0)) (f22 ?v_0 ?v1)) f1))))))
(assert (forall ((?v0 S3) (?v1 S6) (?v2 S6)) (let ((?v_0 (f7 f8 ?v0))) (=> (= (f3 (f4 f43 f12) ?v0) f1) (=> (= (f3 (f4 f43 (f6 ?v_0 ?v1)) (f6 ?v_0 ?v2)) f1) (= (f37 (f38 f45 ?v1) ?v2) f1))))))
(assert (forall ((?v0 S6) (?v1 S6) (?v2 S6)) (let ((?v_0 (f23 f24 ?v0))) (=> (= (f37 (f38 f45 f25) ?v0) f1) (=> (= (f37 (f38 f45 (f22 ?v_0 ?v1)) (f22 ?v_0 ?v2)) f1) (= (f37 (f38 f45 ?v1) ?v2) f1))))))
(assert (forall ((?v0 S3) (?v1 S6) (?v2 S6)) (let ((?v_0 (f7 f8 ?v0))) (=> (= (f3 (f4 f43 f12) ?v0) f1) (= (= (f3 (f4 f43 (f6 ?v_0 ?v1)) (f6 ?v_0 ?v2)) f1) (= (f37 (f38 f45 ?v1) ?v2) f1))))))
(assert (forall ((?v0 S6) (?v1 S6) (?v2 S6)) (let ((?v_0 (f23 f24 ?v0))) (=> (= (f37 (f38 f45 f25) ?v0) f1) (= (= (f37 (f38 f45 (f22 ?v_0 ?v1)) (f22 ?v_0 ?v2)) f1) (= (f37 (f38 f45 ?v1) ?v2) f1))))))
(assert (forall ((?v0 S3) (?v1 S3)) (= (= (f3 (f4 f43 f35) (f9 (f10 f11 (f9 (f10 f29 ?v0) ?v0)) (f9 (f10 f29 ?v1) ?v1))) f1) (or (not (= ?v0 f35)) (not (= ?v1 f35))))))
(assert (forall ((?v0 S3) (?v1 S3)) (not (= (f3 (f4 f43 (f9 (f10 f11 (f9 (f10 f29 ?v0) ?v0)) (f9 (f10 f29 ?v1) ?v1))) f35) f1))))
(assert (forall ((?v0 S6)) (= (f6 (f7 f8 f35) ?v0) (ite (= ?v0 f42) f12 f35))))
(assert (forall ((?v0 S6)) (= (f22 (f23 f24 f42) ?v0) (ite (= ?v0 f42) f25 f42))))
(assert (forall ((?v0 S3) (?v1 S3)) (=> (= (f3 (f4 f43 f35) ?v0) f1) (= (= (f9 (f10 f29 ?v0) ?v1) f12) (and (= ?v0 f12) (= ?v1 f12))))))
(assert (forall ((?v0 S3)) (= (= (f3 (f4 f43 (f9 (f10 f11 (f9 (f10 f11 f12) ?v0)) ?v0)) f35) f1) (= (f3 (f4 f43 ?v0) f35) f1))))
(assert (forall ((?v0 S6) (?v1 S6)) (let ((?v_0 (f38 f39 ?v0))) (= (= (f37 ?v_0 (f22 (f23 f27 ?v1) ?v0)) f1) (= (f37 ?v_0 ?v1) f1)))))
(assert (forall ((?v0 S3) (?v1 S3)) (= (= (f3 (f4 f43 (f9 f18 ?v0)) (f9 f18 ?v1)) f1) (= (f3 (f4 f43 ?v0) ?v1) f1))))
(assert (forall ((?v0 S3) (?v1 S3)) (= (= (f3 (f4 f43 (f9 f18 ?v0)) (f9 f18 ?v1)) f1) (= (f3 (f4 f43 ?v0) ?v1) f1))))
(assert (= (= (f3 (f4 f43 f19) f19) f1) false))
(assert (forall ((?v0 S3) (?v1 S3)) (= (= (f3 (f4 f43 (f9 f17 ?v0)) (f9 f17 ?v1)) f1) (= (f3 (f4 f43 ?v0) ?v1) f1))))
(assert (forall ((?v0 S3) (?v1 S3)) (= (= (f3 (f4 f43 (f9 f17 ?v0)) (f9 f17 ?v1)) f1) (= (f3 (f4 f43 ?v0) ?v1) f1))))
(assert (forall ((?v0 S6)) (= (= (f37 (f38 f39 ?v0) f25) f1) (= ?v0 f25))))
(assert (forall ((?v0 S3) (?v1 S3)) (= (= (f3 (f4 f43 (f9 f26 ?v0)) (f9 f26 ?v1)) f1) (= (f3 (f4 f43 ?v0) ?v1) f1))))
(assert (forall ((?v0 S3)) (= (= (f9 (f10 f11 ?v0) ?v0) f35) (= ?v0 f35))))
(assert (forall ((?v0 S3) (?v1 S3) (?v2 S3)) (=> (= (f3 (f4 f43 ?v0) ?v1) f1) (= (f3 (f4 f43 (f9 (f10 f11 ?v0) ?v2)) (f9 (f10 f11 ?v1) ?v2)) f1))))
(assert (forall ((?v0 S3) (?v1 S6)) (=> (not (= ?v0 f35)) (not (= (f6 (f7 f8 ?v0) ?v1) f35)))))
(assert (= f19 f35))
(assert (not (= f35 f12)))
(assert (forall ((?v0 S6) (?v1 S6)) (=> (= (f22 (f23 f27 ?v0) ?v1) ?v0) (= ?v1 f42))))
(assert (forall ((?v0 S6) (?v1 S6)) (= (= (f22 (f23 f27 ?v0) ?v1) f42) (and (= ?v0 f42) (= ?v1 f42)))))
(assert (forall ((?v0 S6)) (= (f22 (f23 f27 ?v0) f42) ?v0)))
(assert (forall ((?v0 S6)) (= (f22 (f23 f27 f42) ?v0) ?v0)))
(assert (forall ((?v0 S3)) (= (f9 (f10 f11 ?v0) f35) ?v0)))
(assert (forall ((?v0 S3)) (= (f9 (f10 f11 f35) ?v0) ?v0)))
(assert (forall ((?v0 S6) (?v1 S6)) (=> (= ?v0 (f22 (f23 f33 ?v0) ?v1)) (or (= ?v1 f25) (= ?v0 f42)))))
(assert (forall ((?v0 S3) (?v1 S3) (?v2 S3) (?v3 S3) (?v4 S3)) (let ((?v_0 (f10 f29 ?v0))) (=> (not (= ?v0 f35)) (=> (and (= ?v1 ?v2) (not (= ?v3 ?v4))) (not (= (f9 (f10 f11 ?v1) (f9 ?v_0 ?v3)) (f9 (f10 f11 ?v2) (f9 ?v_0 ?v4)))))))))
(assert (forall ((?v0 S6) (?v1 S6) (?v2 S6) (?v3 S6) (?v4 S6)) (let ((?v_0 (f23 f33 ?v0))) (=> (not (= ?v0 f42)) (=> (and (= ?v1 ?v2) (not (= ?v3 ?v4))) (not (= (f22 (f23 f27 ?v1) (f22 ?v_0 ?v3)) (f22 (f23 f27 ?v2) (f22 ?v_0 ?v4)))))))))
(assert (forall ((?v0 S3)) (= (f6 (f7 f8 ?v0) f42) f12)))
(assert (forall ((?v0 S6)) (= (f22 (f23 f24 ?v0) f42) f25)))
(assert (forall ((?v0 S3) (?v1 S6)) (let ((?v_0 (f6 (f7 f8 ?v0) ?v1))) (=> (= (f3 (f4 f43 f35) ?v0) f1) (=> (= (f3 (f4 f43 ?v0) f12) f1) (= (f3 (f4 f43 (f9 (f10 f29 ?v0) ?v_0)) ?v_0) f1))))))
(assert (forall ((?v0 S6) (?v1 S6)) (let ((?v_0 (f22 (f23 f24 ?v0) ?v1))) (=> (= (f37 (f38 f45 f42) ?v0) f1) (=> (= (f37 (f38 f45 ?v0) f25) f1) (= (f37 (f38 f45 (f22 (f23 f33 ?v0) ?v_0)) ?v_0) f1))))))
(assert (forall ((?v0 S3) (?v1 S3) (?v2 S6)) (= (f22 (f23 f33 (f15 f16 ?v0)) (f22 (f23 f33 (f15 f16 ?v1)) ?v2)) (ite (= (f3 (f4 f43 ?v0) f19) f1) f42 (f22 (f23 f33 (f15 f16 (f9 (f10 f29 ?v0) ?v1))) ?v2)))))
(assert (forall ((?v0 S3) (?v1 S3)) (= (f22 (f23 f33 (f15 f16 ?v0)) (f15 f16 ?v1)) (ite (= (f3 (f4 f43 ?v0) f19) f1) f42 (f15 f16 (f9 (f10 f29 ?v0) ?v1))))))
(assert (forall ((?v0 S3)) (= (= (f3 (f4 f43 (f9 f26 ?v0)) f12) f1) (= (f3 (f4 f43 ?v0) (f9 f18 f19)) f1))))
(assert (forall ((?v0 S3)) (= (= (f3 (f4 f43 f12) (f9 f26 ?v0)) f1) (= (f3 (f4 f43 (f9 f18 f19)) ?v0) f1))))
(assert (forall ((?v0 S3) (?v1 S6) (?v2 S6)) (let ((?v_0 (f7 f8 ?v0))) (=> (= (f3 (f4 f43 f12) ?v0) f1) (= (= (f6 ?v_0 ?v1) (f6 ?v_0 ?v2)) (= ?v1 ?v2))))))
(assert (forall ((?v0 S6) (?v1 S6) (?v2 S6)) (let ((?v_0 (f23 f24 ?v0))) (=> (= (f37 (f38 f45 f25) ?v0) f1) (= (= (f22 ?v_0 ?v1) (f22 ?v_0 ?v2)) (= ?v1 ?v2))))))
(assert (forall ((?v0 S3)) (= (= (f3 (f4 f43 (f9 f18 ?v0)) f19) f1) (= (f3 (f4 f43 ?v0) f19) f1))))
(assert (forall ((?v0 S3) (?v1 S3)) (= (= (f3 (f4 f43 (f9 f18 ?v0)) (f9 f17 ?v1)) f1) (= (f3 (f4 f43 ?v0) ?v1) f1))))
(assert (forall ((?v0 S3) (?v1 S3)) (= (= (f3 (f4 f43 (f9 f18 ?v0)) (f9 f17 ?v1)) f1) (= (f3 (f4 f43 ?v0) ?v1) f1))))
(assert (forall ((?v0 S3)) (= (= (f3 (f4 f43 (f9 f17 ?v0)) f19) f1) (= (f3 (f4 f43 ?v0) f19) f1))))
(assert (forall ((?v0 S3)) (let ((?v_0 (f4 f43 f19))) (= (= (f3 ?v_0 (f9 f17 ?v0)) f1) (= (f3 ?v_0 ?v0) f1)))))
(assert (forall ((?v0 S3) (?v1 S3)) (= (= (f9 (f10 f11 (f9 (f10 f29 ?v0) ?v0)) (f9 (f10 f29 ?v1) ?v1)) f35) (and (= ?v0 f35) (= ?v1 f35)))))
(assert (forall ((?v0 S3) (?v1 S3)) (let ((?v_0 (f4 f43 ?v0))) (= (= (f3 ?v_0 (f9 (f10 f11 ?v1) f12)) f1) (or (= (f3 ?v_0 ?v1) f1) (= ?v0 ?v1))))))
(assert (= (f9 f26 f19) f35))
(assert (= (f15 f16 f19) f42))
(assert (= (f9 f26 f19) f35))
(assert (= f35 (f9 f26 f19)))
(assert (forall ((?v0 S6) (?v1 S6)) (= (= (f37 (f38 f39 ?v0) ?v1) f1) (= (f3 (f4 f5 (f6 f13 ?v0)) (f6 f13 ?v1)) f1))))
(assert (forall ((?v0 S6) (?v1 S6)) (= (= (f3 (f4 f5 (f6 f13 ?v0)) (f6 f13 ?v1)) f1) (= (f37 (f38 f39 ?v0) ?v1) f1))))
(assert (forall ((?v0 S3)) (= (f6 (f7 f8 ?v0) f42) f12)))
(assert (forall ((?v0 S6)) (= (f22 (f23 f24 ?v0) f42) f25)))
(assert (forall ((?v0 S3) (?v1 S3) (?v2 S6)) (let ((?v_0 (f4 f5 ?v0))) (=> (= (f3 f36 ?v0) f1) (=> (= (f3 ?v_0 (f6 (f7 f8 ?v1) ?v2)) f1) (= (f3 ?v_0 ?v1) f1))))))
(assert (= (f15 f16 f19) f42))
(assert (= f42 (f15 f16 f19)))
(assert (= f35 (f9 f26 f19)))
(assert (forall ((?v0 S3)) (not (= (f9 (f10 f11 (f9 (f10 f11 f12) ?v0)) ?v0) f35))))
(assert (forall ((?v0 S3) (?v1 S3) (?v2 S3)) (let ((?v_0 (f10 f29 ?v0))) (=> (= (f3 (f4 f5 (f9 ?v_0 ?v1)) (f9 ?v_0 ?v2)) f1) (=> (not (= ?v0 f35)) (= (f3 (f4 f5 ?v1) ?v2) f1))))))
(assert (forall ((?v0 S3) (?v1 S3)) (=> (= (f3 f41 ?v0) f1) (=> (= (f3 f41 ?v1) f1) (= (f3 f41 (f9 (f10 f29 ?v0) ?v1)) f1)))))
(assert (forall ((?v0 S3)) (= (= (f3 (f4 f43 f35) (f6 (f7 f8 ?v0) (f15 f16 (f9 f17 (f9 f18 f19))))) f1) (not (= ?v0 f35)))))
(assert (forall ((?v0 S3)) (not (= (f3 (f4 f43 (f6 (f7 f8 ?v0) (f15 f16 (f9 f17 (f9 f18 f19))))) f35) f1))))
(assert (forall ((?v0 S3) (?v1 S3)) (let ((?v_0 (f15 f16 (f9 f17 (f9 f18 f19))))) (= (= (f3 (f4 f43 f35) (f9 (f10 f11 (f6 (f7 f8 ?v0) ?v_0)) (f6 (f7 f8 ?v1) ?v_0))) f1) (or (not (= ?v0 f35)) (not (= ?v1 f35)))))))
(assert (forall ((?v0 S3) (?v1 S3)) (let ((?v_0 (f15 f16 (f9 f17 (f9 f18 f19))))) (not (= (f3 (f4 f43 (f9 (f10 f11 (f6 (f7 f8 ?v0) ?v_0)) (f6 (f7 f8 ?v1) ?v_0))) f35) f1)))))
(assert (forall ((?v0 S3) (?v1 S6)) (let ((?v_0 (f6 (f7 f8 ?v0) ?v1))) (=> (= (f3 (f4 f43 f12) ?v0) f1) (= (f3 (f4 f43 ?v_0) (f9 (f10 f29 ?v0) ?v_0)) f1)))))
(assert (forall ((?v0 S6) (?v1 S6)) (let ((?v_0 (f22 (f23 f24 ?v0) ?v1))) (=> (= (f37 (f38 f45 f25) ?v0) f1) (= (f37 (f38 f45 ?v_0) (f22 (f23 f33 ?v0) ?v_0)) f1)))))
(assert (forall ((?v0 S3) (?v1 S6)) (let ((?v_0 (f4 f43 f12))) (=> (= (f3 ?v_0 ?v0) f1) (= (f3 ?v_0 (f9 (f10 f29 ?v0) (f6 (f7 f8 ?v0) ?v1))) f1)))))
(assert (forall ((?v0 S6) (?v1 S6)) (let ((?v_0 (f38 f45 f25))) (=> (= (f37 ?v_0 ?v0) f1) (= (f37 ?v_0 (f22 (f23 f33 ?v0) (f22 (f23 f24 ?v0) ?v1))) f1)))))
(assert (forall ((?v0 S3)) (let ((?v_0 (f9 f26 ?v0))) (= (f9 f26 (f9 f17 ?v0)) (f9 (f10 f11 (f9 (f10 f11 f35) ?v_0)) ?v_0)))))
(assert (forall ((?v0 S3) (?v1 S3)) (= (f9 (f10 f29 ?v0) ?v1) (f9 (f10 f29 ?v1) ?v0))))
(assert (forall ((?v0 S6) (?v1 S6)) (= (f22 (f23 f33 ?v0) ?v1) (f22 (f23 f33 ?v1) ?v0))))
(check-sat)
(exit)
